language ESSENCE' 1.0

letting jobs = 102
letting horizon = 819
letting resourcesRenew = 2
letting resourcesNonrenew = 2
letting resourceLimits = [11, 11, 154, 157]
letting successors = [[2, 3, 5, 6, 7, 9, 10, 15, 19], [22, 8, 4], [25, 24, 22, 18, 14, 11], [28, 24, 23, 21, 18, 14], [28, 21, 18, 13, 12], [37, 36, 33, 31, 28, 26, 22, 21, 17], [40, 37, 35, 31, 28, 26, 25, 22, 18], [37, 36, 33, 31, 30, 26, 25, 21, 20], [35, 30, 26, 23, 21, 20, 18], [37, 36, 33, 31, 30, 17], [33, 28, 26, 21, 16], [36, 35, 30, 29, 27, 26, 25, 24], [37, 36, 35, 34, 33, 30, 29, 27, 26], [45, 36, 33, 17], [45, 36, 33, 17], [40, 37, 36, 34, 31, 27], [40, 35, 20], [45, 36, 34, 29, 27], [36, 35, 27, 26], [34, 29, 27], [45, 34, 27], [45, 29, 27], [45, 40, 39, 34, 32], [37, 34, 32, 31], [45, 41, 39, 32], [45, 44, 42, 41, 39, 38], [41, 39, 32], [55, 30], [55, 51, 44, 42, 39, 38], [51, 45, 44, 42, 39, 38], [55, 51, 49, 45, 44, 38], [55, 51, 49, 44, 42, 38], [57, 51, 49, 44, 42, 38], [58, 57, 55, 51, 49, 46, 42], [57, 47, 46, 44, 43, 41], [51, 49, 44, 42, 38], [58, 57, 55, 54, 53, 51, 49, 47, 46, 43], [58, 54, 53, 47, 46, 43], [58, 57, 54, 53, 49, 48, 46], [58, 53, 50, 49, 47, 43], [60, 58, 56, 55, 53, 51, 50, 49], [54, 53, 47, 43], [68, 64, 62, 60, 48], [63, 62, 61, 53, 52], [77, 71, 64, 60, 58, 57, 52], [71, 60, 52, 50], [77, 71, 64, 63, 62, 61, 52], [71, 66, 63, 59, 56], [79, 77, 68, 67, 64, 63, 59], [74, 70, 67, 65, 64, 61], [84, 71, 69, 68, 67, 65, 62], [69, 67, 66, 59], [80, 79, 78, 76, 75, 74, 73, 72, 71, 70, 68], [83, 78, 75, 74, 72, 70, 68, 65], [84, 80, 79, 78, 76, 75, 74, 73, 72, 71, 69], [85, 79, 78, 74, 72, 70, 69, 67], [84, 78, 75, 74, 72, 68, 67, 65], [85, 84, 83, 80, 79, 78, 76, 75, 73, 72, 69], [84, 83, 78, 75, 74, 72, 65], [85, 84, 83, 79, 78, 76, 72, 69], [84, 78, 69, 66], [87, 85, 83, 79, 78, 75, 74, 72], [85, 84, 83, 78, 75, 72, 69], [88, 86, 84, 83, 80, 75, 73, 72], [86, 85, 81, 80, 76, 73], [88, 87, 86, 85, 83, 79, 72], [88, 86, 83, 81, 80, 73], [101, 100, 96, 92, 91, 90, 87, 86, 85, 82, 81], [100, 96, 92, 90, 89, 88, 87, 86, 82, 81], [89, 86, 84, 77], [100, 92, 91, 90, 87, 86, 85, 83], [100, 97, 96, 92, 90, 89, 82], [100, 96, 90, 89, 87, 82], [100, 99, 98, 97, 96, 95, 94, 89], [99, 96, 95, 91, 90, 81], [101, 97, 92, 91, 90, 88], [101, 100, 96, 90, 81], [100, 93, 90, 88, 86], [101, 99, 97, 95, 94, 93], [101, 98, 96, 93, 92], [98, 97, 94, 93], [98, 95, 94, 93], [101, 97, 96, 94], [101, 96, 95, 93], [99, 94, 93], [99, 95], [94, 93], [95, 94], [91], [94], [93], [95], [102], [102], [102], [102], [102], [102], [102], [102], [102], []]
letting durations = [[0], [4, 7, 9], [3, 5, 9], [4, 6, 7], [1, 7, 8], [3, 5, 8], [4, 5, 9], [5, 8, 9], [3, 9, 10], [6, 8, 9], [3, 4, 10], [2, 6, 8], [2, 3, 10], [2, 7, 10], [4, 7, 7], [2, 3, 5], [1, 6, 8], [2, 3, 6], [2, 2, 7], [2, 2, 8], [1, 3, 8], [4, 6, 9], [2, 4, 8], [2, 3, 7], [1, 8, 9], [1, 3, 7], [1, 2, 3], [5, 6, 9], [3, 8, 10], [7, 8, 10], [3, 5, 6], [4, 7, 9], [2, 3, 7], [3, 3, 5], [3, 4, 10], [2, 3, 6], [3, 5, 9], [5, 7, 10], [3, 7, 9], [4, 8, 9], [2, 4, 9], [4, 6, 7], [4, 6, 10], [2, 5, 6], [3, 6, 9], [1, 7, 9], [5, 7, 8], [3, 4, 10], [3, 4, 7], [2, 7, 9], [4, 7, 10], [1, 4, 9], [3, 6, 10], [6, 7, 8], [6, 7, 10], [5, 6, 10], [2, 7, 10], [2, 7, 7], [7, 9, 10], [2, 4, 6], [3, 6, 7], [1, 6, 8], [2, 4, 5], [2, 7, 10], [1, 6, 7], [4, 5, 8], [4, 7, 10], [3, 4, 5], [1, 2, 4], [1, 7, 9], [1, 4, 7], [5, 6, 7], [8, 8, 9], [2, 3, 5], [5, 8, 9], [5, 7, 10], [4, 7, 8], [1, 7, 8], [3, 7, 9], [6, 8, 9], [7, 9, 9], [3, 4, 5], [2, 3, 4], [5, 7, 10], [3, 9, 10], [1, 5, 9], [4, 5, 9], [1, 2, 8], [1, 3, 4], [2, 3, 10], [6, 6, 10], [1, 8, 8], [2, 4, 8], [2, 4, 10], [4, 7, 10], [2, 6, 10], [3, 8, 9], [4, 5, 8], [5, 7, 8], [9, 10, 10], [1, 4, 5], [0]]
letting resourceUsage = [[[0, 0, 0, 0]], [[0, 3, 0, 6], [0, 3, 0, 5], [0, 2, 0, 3]], [[0, 3, 6, 0], [0, 3, 4, 0], [5, 0, 0, 1]], [[2, 0, 0, 5], [0, 1, 0, 3], [0, 1, 0, 1]], [[0, 3, 0, 6], [0, 3, 6, 0], [0, 3, 0, 5]], [[0, 3, 2, 0], [0, 3, 0, 3], [0, 1, 1, 0]], [[4, 0, 7, 0], [4, 0, 6, 0], [4, 0, 3, 0]], [[4, 0, 9, 0], [3, 0, 0, 3], [0, 2, 7, 0]], [[3, 0, 7, 0], [2, 0, 7, 0], [0, 1, 6, 0]], [[1, 0, 7, 0], [1, 0, 6, 0], [1, 0, 4, 0]], [[0, 3, 0, 8], [0, 1, 0, 6], [0, 1, 2, 0]], [[0, 1, 0, 5], [3, 0, 5, 0], [0, 1, 4, 0]], [[0, 4, 0, 4], [0, 4, 8, 0], [0, 4, 0, 1]], [[4, 0, 4, 0], [0, 2, 0, 2], [0, 2, 0, 1]], [[0, 1, 0, 9], [4, 0, 4, 0], [0, 1, 0, 8]], [[2, 0, 0, 6], [1, 0, 0, 5], [1, 0, 0, 3]], [[4, 0, 8, 0], [0, 3, 0, 3], [0, 3, 0, 2]], [[4, 0, 0, 4], [3, 0, 3, 0], [0, 2, 3, 0]], [[3, 0, 6, 0], [0, 1, 5, 0], [0, 1, 2, 0]], [[2, 0, 0, 8], [0, 4, 0, 7], [1, 0, 0, 5]], [[0, 4, 0, 5], [2, 0, 4, 0], [1, 0, 3, 0]], [[0, 4, 0, 3], [2, 0, 7, 0], [0, 3, 0, 1]], [[3, 0, 0, 4], [2, 0, 0, 4], [2, 0, 0, 3]], [[4, 0, 0, 6], [4, 0, 0, 5], [0, 4, 3, 0]], [[5, 0, 0, 7], [0, 2, 0, 4], [0, 2, 4, 0]], [[0, 2, 0, 10], [2, 0, 1, 0], [1, 0, 1, 0]], [[4, 0, 8, 0], [2, 0, 7, 0], [2, 0, 0, 2]], [[4, 0, 0, 1], [0, 2, 0, 2], [0, 2, 0, 1]], [[4, 0, 6, 0], [3, 0, 4, 0], [2, 0, 3, 0]], [[0, 5, 10, 0], [0, 4, 0, 5], [3, 0, 7, 0]], [[2, 0, 0, 9], [0, 4, 0, 7], [2, 0, 0, 4]], [[5, 0, 0, 9], [4, 0, 4, 0], [4, 0, 0, 3]], [[0, 3, 7, 0], [0, 3, 6, 0], [0, 3, 0, 1]], [[0, 5, 10, 0], [0, 4, 0, 3], [0, 4, 0, 1]], [[3, 0, 7, 0], [2, 0, 6, 0], [0, 3, 6, 0]], [[3, 0, 0, 10], [3, 0, 5, 0], [3, 0, 0, 9]], [[3, 0, 6, 0], [0, 1, 4, 0], [1, 0, 3, 0]], [[4, 0, 0, 9], [0, 2, 0, 6], [0, 2, 0, 4]], [[5, 0, 2, 0], [0, 3, 2, 0], [5, 0, 1, 0]], [[5, 0, 0, 7], [4, 0, 2, 0], [0, 1, 2, 0]], [[0, 5, 1, 0], [0, 4, 1, 0], [0, 2, 1, 0]], [[0, 4, 2, 0], [3, 0, 0, 5], [2, 0, 2, 0]], [[0, 2, 6, 0], [0, 2, 0, 3], [0, 2, 0, 2]], [[0, 3, 0, 8], [0, 2, 7, 0], [0, 1, 0, 3]], [[1, 0, 0, 10], [1, 0, 0, 8], [0, 5, 2, 0]], [[0, 5, 7, 0], [0, 3, 0, 7], [2, 0, 2, 0]], [[0, 3, 0, 8], [0, 3, 2, 0], [0, 2, 2, 0]], [[0, 3, 6, 0], [2, 0, 5, 0], [1, 0, 0, 3]], [[4, 0, 4, 0], [3, 0, 0, 9], [0, 4, 1, 0]], [[0, 4, 0, 7], [1, 0, 0, 7], [1, 0, 0, 6]], [[4, 0, 6, 0], [4, 0, 4, 0], [4, 0, 0, 3]], [[0, 2, 8, 0], [0, 2, 7, 0], [0, 2, 6, 0]], [[3, 0, 0, 8], [0, 3, 0, 6], [0, 3, 0, 5]], [[0, 3, 7, 0], [0, 3, 6, 0], [0, 3, 0, 2]], [[0, 1, 0, 8], [2, 0, 4, 0], [2, 0, 3, 0]], [[0, 5, 0, 8], [0, 3, 0, 6], [0, 3, 0, 5]], [[3, 0, 4, 0], [0, 5, 4, 0], [0, 5, 3, 0]], [[2, 0, 5, 0], [1, 0, 0, 4], [0, 3, 0, 2]], [[3, 0, 0, 1], [0, 4, 7, 0], [3, 0, 6, 0]], [[3, 0, 4, 0], [3, 0, 3, 0], [1, 0, 4, 0]], [[4, 0, 0, 8], [3, 0, 0, 8], [2, 0, 3, 0]], [[0, 2, 0, 4], [3, 0, 0, 3], [2, 0, 2, 0]], [[4, 0, 0, 4], [3, 0, 3, 0], [2, 0, 3, 0]], [[0, 4, 0, 6], [1, 0, 2, 0], [1, 0, 1, 0]], [[4, 0, 0, 4], [2, 0, 7, 0], [0, 2, 0, 2]], [[3, 0, 10, 0], [3, 0, 5, 0], [0, 1, 0, 7]], [[4, 0, 10, 0], [0, 2, 6, 0], [4, 0, 2, 0]], [[0, 1, 9, 0], [2, 0, 0, 3], [0, 1, 0, 1]], [[4, 0, 8, 0], [0, 2, 8, 0], [0, 2, 0, 4]], [[2, 0, 0, 8], [1, 0, 0, 6], [0, 4, 0, 2]], [[0, 4, 6, 0], [1, 0, 4, 0], [0, 2, 0, 3]], [[4, 0, 0, 7], [4, 0, 0, 6], [3, 0, 0, 4]], [[5, 0, 10, 0], [0, 4, 7, 0], [0, 3, 6, 0]], [[3, 0, 0, 4], [0, 2, 0, 3], [2, 0, 7, 0]], [[0, 4, 0, 5], [0, 4, 7, 0], [3, 0, 0, 2]], [[0, 4, 0, 6], [0, 2, 0, 4], [1, 0, 2, 0]], [[0, 2, 8, 0], [0, 2, 7, 0], [0, 2, 0, 1]], [[2, 0, 0, 6], [0, 1, 6, 0], [2, 0, 4, 0]], [[0, 3, 9, 0], [2, 0, 0, 6], [2, 0, 5, 0]], [[0, 5, 3, 0], [0, 5, 2, 0], [0, 5, 1, 0]], [[3, 0, 0, 3], [0, 2, 0, 2], [3, 0, 4, 0]], [[0, 2, 0, 9], [0, 2, 3, 0], [0, 1, 3, 0]], [[0, 3, 5, 0], [1, 0, 4, 0], [1, 0, 3, 0]], [[1, 0, 10, 0], [1, 0, 8, 0], [1, 0, 0, 3]], [[5, 0, 0, 4], [4, 0, 9, 0], [4, 0, 7, 0]], [[1, 0, 0, 9], [1, 0, 0, 8], [0, 1, 0, 7]], [[0, 4, 0, 5], [0, 3, 0, 4], [2, 0, 5, 0]], [[0, 4, 0, 9], [2, 0, 3, 0], [0, 1, 1, 0]], [[1, 0, 1, 0], [0, 4, 1, 0], [1, 0, 0, 9]], [[5, 0, 0, 6], [0, 4, 0, 6], [3, 0, 0, 5]], [[0, 3, 0, 6], [3, 0, 0, 5], [2, 0, 2, 0]], [[0, 3, 4, 0], [0, 3, 0, 5], [4, 0, 0, 2]], [[3, 0, 2, 0], [0, 4, 2, 0], [0, 4, 1, 0]], [[1, 0, 0, 4], [1, 0, 3, 0], [0, 1, 2, 0]], [[0, 4, 0, 5], [0, 2, 0, 2], [3, 0, 0, 1]], [[2, 0, 0, 6], [2, 0, 0, 3], [2, 0, 0, 1]], [[3, 0, 6, 0], [3, 0, 0, 5], [0, 1, 0, 1]], [[3, 0, 0, 5], [2, 0, 0, 2], [0, 2, 6, 0]], [[5, 0, 0, 8], [4, 0, 0, 8], [0, 1, 6, 0]], [[0, 1, 6, 0], [0, 1, 5, 0], [2, 0, 5, 0]], [[0, 4, 0, 4], [4, 0, 0, 3], [0, 2, 0, 3]], [[0, 0, 0, 0]]]
